Welcome to the CBC MILP Solver 
Version: 2.10.3 
Build Date: Dec 15 2019 

command line - /Users/williammohr/opt/anaconda3/lib/python3.9/site-packages/pulp/solverdir/cbc/osx/64/cbc /var/folders/7q/63cgxnn50sl5zwxkchv_j2cr0000gn/T/fe85434c545e47bea9fd3eb42deb359d-pulp.mps timeMode elapsed branch printingOptions all solution /var/folders/7q/63cgxnn50sl5zwxkchv_j2cr0000gn/T/fe85434c545e47bea9fd3eb42deb359d-pulp.sol (default strategy 1)
At line 2 NAME          MODEL
At line 3 ROWS
At line 7 COLUMNS
At line 357 RHS
At line 360 BOUNDS
At line 361 ENDATA
Problem MODEL has 2 rows, 117 columns and 232 elements
Coin0008I MODEL read with 0 errors
Option for timeMode changed from cpu to elapsed
Presolve 2 (0) rows, 109 (-8) columns and 218 (-14) elements
0  Obj 0 Primal inf 1.5918125 (1)
1  Obj 249.71325
Optimal - objective value 249.71325
After Postsolve, objective 249.71325, infeasibilities - dual 0 (0), primal 0 (0)
Optimal objective 249.7132486 - 1 iterations time 0.002, Presolve 0.00
Option for printingOptions changed from normal to all
Total time (CPU seconds):       0.00   (Wallclock seconds):       0.00

